* Problem:    f1_patrones
* Class:      LP
* Rows:       289
* Columns:    149
* Non-zeros:  629
* Format:     Fixed MPS
*
NAME          f1_patro
ROWS
 N  obj
 E  cover[1]
 E  cover[2]
 E  cover[3]
 E  cover[4]
 E  cover[5]
 E  cover[6]
 E  cover[7]
 E  cover[8]
 E  cover[9]
 E  R0000011
 E  R0000012
 E  R0000013
 E  R0000014
 E  R0000015
 E  R0000016
 E  R0000017
 E  R0000018
 E  R0000019
 E  R0000020
 E  R0000021
 E  R0000022
 E  R0000023
 E  R0000024
 E  R0000025
 E  R0000026
 E  R0000027
 E  R0000028
 E  R0000029
 E  R0000030
 E  R0000031
 E  R0000032
 E  R0000033
 E  R0000034
 E  R0000035
 E  R0000036
 E  R0000037
 E  R0000038
 E  R0000039
 E  R0000040
 E  R0000041
 E  R0000042
 E  R0000043
 E  R0000044
 E  R0000045
 E  R0000046
 E  R0000047
 E  R0000048
 E  R0000049
 E  R0000050
 E  R0000051
 E  R0000052
 E  R0000053
 E  R0000054
 E  R0000055
 E  R0000056
 E  R0000057
 E  R0000058
 E  R0000059
 E  R0000060
 E  R0000061
 E  R0000062
 E  R0000063
 E  R0000064
 E  R0000065
 E  R0000066
 E  R0000067
 E  R0000068
 E  R0000069
 E  R0000070
 E  R0000071
 E  R0000072
 E  R0000073
 E  R0000074
 E  R0000075
 E  R0000076
 E  R0000077
 E  R0000078
 E  R0000079
 E  R0000080
 E  R0000081
 E  R0000082
 E  R0000083
 E  R0000084
 E  R0000085
 E  R0000086
 E  R0000087
 E  R0000088
 E  R0000089
 E  R0000090
 E  R0000091
 E  R0000092
 E  R0000093
 E  R0000094
 E  R0000095
 E  R0000096
 E  R0000097
 E  R0000098
 E  R0000099
 E  R0000100
 E  R0000101
 E  R0000102
 E  R0000103
 E  R0000104
 E  R0000105
 E  R0000106
 E  R0000107
 E  R0000108
 E  R0000109
 E  R0000110
 E  R0000111
 E  R0000112
 E  R0000113
 E  R0000114
 E  R0000115
 E  R0000116
 E  R0000117
 E  R0000118
 E  R0000119
 E  R0000120
 E  R0000121
 E  R0000122
 E  R0000123
 E  R0000124
 E  R0000125
 E  R0000126
 E  R0000127
 E  R0000128
 E  R0000129
 E  R0000130
 E  R0000131
 E  R0000132
 E  R0000133
 E  R0000134
 E  R0000135
 E  R0000136
 E  R0000137
 E  R0000138
 E  R0000139
 E  R0000140
 E  R0000141
 E  R0000142
 E  R0000143
 E  R0000144
 E  R0000145
 G  my[1]
 G  my[2]
 G  my[3]
 G  my[4]
 G  my[5]
 G  my[6]
 G  my[7]
 G  my[8]
 G  my[9]
 G  my[10]
 G  my[11]
 G  my[12]
 G  my[13]
 G  my[14]
 G  my[15]
 G  my[16]
 G  my[17]
 G  my[18]
 G  my[19]
 G  my[20]
 G  my[21]
 G  my[22]
 G  my[23]
 G  my[24]
 G  my[25]
 G  my[26]
 G  my[27]
 G  my[28]
 G  my[29]
 G  my[30]
 G  my[31]
 G  my[32]
 G  my[33]
 G  my[34]
 G  my[35]
 G  my[36]
 G  my[37]
 G  my[38]
 G  my[39]
 G  my[40]
 G  my[41]
 G  my[42]
 G  my[43]
 G  my[44]
 G  my[45]
 G  my[46]
 G  my[47]
 G  my[48]
 G  my[49]
 G  my[50]
 G  my[51]
 G  my[52]
 G  my[53]
 G  my[54]
 G  my[55]
 G  my[56]
 G  my[57]
 G  my[58]
 G  my[59]
 G  my[60]
 G  my[61]
 G  my[62]
 G  my[63]
 G  my[64]
 G  my[65]
 G  my[66]
 G  my[67]
 G  my[68]
 G  my[69]
 G  my[70]
 G  my[71]
 G  my[72]
 G  my[73]
 G  my[74]
 G  my[75]
 G  my[76]
 G  my[77]
 G  my[78]
 G  my[79]
 G  my[80]
 G  my[81]
 G  my[82]
 G  my[83]
 G  my[84]
 G  my[85]
 G  my[86]
 G  my[87]
 G  my[88]
 G  my[89]
 G  my[90]
 G  my[91]
 G  my[92]
 G  my[93]
 G  my[94]
 G  my[95]
 G  my[96]
 G  my[97]
 G  my[98]
 G  my[99]
 G  my[100]
 G  my[101]
 G  my[102]
 G  my[103]
 G  my[104]
 G  my[105]
 G  my[106]
 G  my[107]
 G  my[108]
 G  my[109]
 G  my[110]
 G  my[111]
 G  my[112]
 G  my[113]
 G  my[114]
 G  my[115]
 G  my[116]
 G  my[117]
 G  my[118]
 G  my[119]
 G  my[120]
 G  my[121]
 G  my[122]
 G  my[123]
 G  my[124]
 G  my[125]
 G  my[126]
 G  my[127]
 G  my[128]
 G  my[129]
 G  my[130]
 G  my[131]
 G  my[132]
 G  my[133]
 G  my[134]
 G  my[135]
 G  my[136]
 G  my[137]
 G  my[138]
 G  my[139]
 G  my[140]
 G  my[141]
 G  my[142]
 G  my[143]
 G  my[144]
COLUMNS
    x[1]      obj                  1   cover[1]             1
    x[1]      cover[2]             1   cover[3]             1
    x[1]      cover[4]             1   cover[5]             1
    x[1]      cover[6]             1   cover[7]             1
    x[1]      cover[8]             1   cover[9]             1
    x[1]      R0000011             1   R0000012             1
    x[1]      R0000013             1   R0000014             1
    x[1]      R0000015             1   R0000016             1
    x[1]      R0000017             1   R0000018             1
    x[1]      R0000019             1   R0000020             1
    x[1]      R0000021             1   R0000022             1
    x[1]      R0000023             1   R0000024             1
    x[1]      R0000025             1   R0000026             1
    x[1]      R0000027             1   R0000028             1
    x[1]      R0000029             1   R0000030             1
    x[1]      R0000031             1   R0000032             1
    x[1]      R0000033             1   R0000034             1
    x[1]      R0000035             1   R0000036             1
    x[1]      R0000037             1   R0000038             1
    x[1]      R0000039             1   R0000040             1
    x[1]      R0000041             1   R0000042             1
    x[1]      R0000043             1   R0000044             1
    x[1]      R0000045             1   R0000046             1
    x[1]      R0000047             1   R0000048             1
    x[1]      R0000049             1
    x[2]      obj                  1   R0000048             1
    x[2]      R0000049             1   R0000050             1
    x[2]      R0000051             1   R0000052             1
    x[2]      R0000053             1   R0000054             1
    x[2]      R0000055             1   R0000056             1
    x[2]      R0000057             1   R0000058             1
    x[2]      R0000059             1   R0000060             1
    x[2]      R0000061             1   R0000062             1
    x[2]      R0000063             1   R0000064             1
    x[2]      R0000065             1   R0000066             1
    x[2]      R0000067             1   R0000068             1
    x[2]      R0000069             1   R0000070             1
    x[2]      R0000071             1   R0000072             1
    x[2]      R0000073             1   R0000074             1
    x[2]      R0000075             1   R0000076             1
    x[2]      R0000077             1   R0000078             1
    x[2]      R0000079             1   R0000080             1
    x[2]      R0000081             1   R0000082             1
    x[2]      R0000083             1   R0000084             1
    x[2]      R0000085             1   R0000086             1
    x[2]      R0000087             1   R0000088             1
    x[2]      R0000089             1   R0000090             1
    x[2]      R0000091             1   R0000092             1
    x[2]      R0000093             1   R0000094             1
    x[2]      R0000095             1
    x[3]      obj                  1   R0000094             1
    x[3]      R0000095             1   R0000096             1
    x[3]      R0000097             1   R0000098             1
    x[3]      R0000099             1   R0000100             1
    x[3]      R0000101             1   R0000102             1
    x[3]      R0000103             1   R0000104             1
    x[3]      R0000105             1   R0000106             1
    x[3]      R0000107             1   R0000108             1
    x[3]      R0000109             1   R0000110             1
    x[3]      R0000111             1   R0000112             1
    x[3]      R0000113             1   R0000114             1
    x[3]      R0000115             1   R0000116             1
    x[3]      R0000117             1   R0000118             1
    x[3]      R0000119             1   R0000120             1
    x[3]      R0000121             1   R0000122             1
    x[3]      R0000123             1   R0000124             1
    x[3]      R0000125             1   R0000126             1
    x[3]      R0000127             1   R0000128             1
    x[3]      R0000129             1   R0000130             1
    x[3]      R0000131             1   R0000132             1
    x[3]      R0000133             1   R0000134             1
    x[3]      R0000135             1   R0000136             1
    x[3]      R0000137             1   R0000138             1
    x[3]      R0000139             1   R0000140             1
    x[3]      R0000141             1
    x[4]      obj                  1   R0000098             1
    x[4]      R0000099             1   R0000100             1
    x[4]      R0000101             1   R0000102             1
    x[4]      R0000103             1   R0000104             1
    x[4]      R0000105             1   R0000106             1
    x[4]      R0000107             1   R0000108             1
    x[4]      R0000109             1   R0000110             1
    x[4]      R0000111             1   R0000112             1
    x[4]      R0000113             1   R0000114             1
    x[4]      R0000115             1   R0000116             1
    x[4]      R0000117             1   R0000118             1
    x[4]      R0000119             1   R0000120             1
    x[4]      R0000121             1   R0000122             1
    x[4]      R0000123             1   R0000124             1
    x[4]      R0000125             1   R0000126             1
    x[4]      R0000127             1   R0000128             1
    x[4]      R0000129             1   R0000130             1
    x[4]      R0000131             1   R0000132             1
    x[4]      R0000133             1   R0000134             1
    x[4]      R0000135             1   R0000136             1
    x[4]      R0000137             1   R0000138             1
    x[4]      R0000139             1   R0000140             1
    x[4]      R0000141             1   R0000142             1
    x[4]      R0000143             1   R0000144             1
    x[4]      R0000145             1
    y[1]      cover[1]            -1   my[1]               -1
    y[2]      cover[2]            -1   my[2]               -1
    y[3]      cover[3]            -1   my[3]               -1
    y[4]      cover[4]            -1   my[4]               -1
    y[5]      cover[5]            -1   my[5]               -1
    y[6]      cover[6]            -1   my[6]               -1
    y[7]      cover[7]            -1   my[7]               -1
    y[8]      cover[8]            -1   my[8]               -1
    y[9]      cover[9]            -1   my[9]               -1
    y[10]     R0000011            -1   my[10]              -1
    y[11]     R0000012            -1   my[11]              -1
    y[12]     R0000013            -1   my[12]              -1
    y[13]     R0000014            -1   my[13]              -1
    y[14]     R0000015            -1   my[14]              -1
    y[15]     R0000016            -1   my[15]              -1
    y[16]     R0000017            -1   my[16]              -1
    y[17]     R0000018            -1   my[17]              -1
    y[18]     R0000019            -1   my[18]              -1
    y[19]     R0000020            -1   my[19]              -1
    y[20]     R0000021            -1   my[20]              -1
    y[21]     R0000022            -1   my[21]              -1
    y[22]     R0000023            -1   my[22]              -1
    y[23]     R0000024            -1   my[23]              -1
    y[24]     R0000025            -1   my[24]              -1
    y[25]     R0000026            -1   my[25]              -1
    y[26]     R0000027            -1   my[26]              -1
    y[27]     R0000028            -1   my[27]              -1
    y[28]     R0000029            -1   my[28]              -1
    y[29]     R0000030            -1   my[29]              -1
    y[30]     R0000031            -1   my[30]              -1
    y[31]     R0000032            -1   my[31]              -1
    y[32]     R0000033            -1   my[32]              -1
    y[33]     R0000034            -1   my[33]              -1
    y[34]     R0000035            -1   my[34]              -1
    y[35]     R0000036            -1   my[35]              -1
    y[36]     R0000037            -1   my[36]              -1
    y[37]     R0000038            -1   my[37]              -1
    y[38]     R0000039            -1   my[38]              -1
    y[39]     R0000040            -1   my[39]              -1
    y[40]     R0000041            -1   my[40]              -1
    y[41]     R0000042            -1   my[41]              -1
    y[42]     R0000043            -1   my[42]              -1
    y[43]     R0000044            -1   my[43]              -1
    y[44]     R0000045            -1   my[44]              -1
    y[45]     R0000046            -1   my[45]              -1
    y[46]     R0000047            -1   my[46]              -1
    y[47]     R0000048            -1   my[47]              -1
    y[48]     R0000049            -1   my[48]              -1
    y[49]     R0000050            -1   my[49]              -1
    y[50]     R0000051            -1   my[50]              -1
    y[51]     R0000052            -1   my[51]              -1
    y[52]     R0000053            -1   my[52]              -1
    y[53]     R0000054            -1   my[53]              -1
    y[54]     R0000055            -1   my[54]              -1
    y[55]     R0000056            -1   my[55]              -1
    y[56]     R0000057            -1   my[56]              -1
    y[57]     R0000058            -1   my[57]              -1
    y[58]     R0000059            -1   my[58]              -1
    y[59]     R0000060            -1   my[59]              -1
    y[60]     R0000061            -1   my[60]              -1
    y[61]     R0000062            -1   my[61]              -1
    y[62]     R0000063            -1   my[62]              -1
    y[63]     R0000064            -1   my[63]              -1
    y[64]     R0000065            -1   my[64]              -1
    y[65]     R0000066            -1   my[65]              -1
    y[66]     R0000067            -1   my[66]              -1
    y[67]     R0000068            -1   my[67]              -1
    y[68]     R0000069            -1   my[68]              -1
    y[69]     R0000070            -1   my[69]              -1
    y[70]     R0000071            -1   my[70]              -1
    y[71]     R0000072            -1   my[71]              -1
    y[72]     R0000073            -1   my[72]              -1
    y[73]     R0000074            -1   my[73]              -1
    y[74]     R0000075            -1   my[74]              -1
    y[75]     R0000076            -1   my[75]              -1
    y[76]     R0000077            -1   my[76]              -1
    y[77]     R0000078            -1   my[77]              -1
    y[78]     R0000079            -1   my[78]              -1
    y[79]     R0000080            -1   my[79]              -1
    y[80]     R0000081            -1   my[80]              -1
    y[81]     R0000082            -1   my[81]              -1
    y[82]     R0000083            -1   my[82]              -1
    y[83]     R0000084            -1   my[83]              -1
    y[84]     R0000085            -1   my[84]              -1
    y[85]     R0000086            -1   my[85]              -1
    y[86]     R0000087            -1   my[86]              -1
    y[87]     R0000088            -1   my[87]              -1
    y[88]     R0000089            -1   my[88]              -1
    y[89]     R0000090            -1   my[89]              -1
    y[90]     R0000091            -1   my[90]              -1
    y[91]     R0000092            -1   my[91]              -1
    y[92]     R0000093            -1   my[92]              -1
    y[93]     R0000094            -1   my[93]              -1
    y[94]     R0000095            -1   my[94]              -1
    y[95]     R0000096            -1   my[95]              -1
    y[96]     R0000097            -1   my[96]              -1
    y[97]     R0000098            -1   my[97]              -1
    y[98]     R0000099            -1   my[98]              -1
    y[99]     R0000100            -1   my[99]              -1
    y[100]    R0000101            -1   my[100]             -1
    y[101]    R0000102            -1   my[101]             -1
    y[102]    R0000103            -1   my[102]             -1
    y[103]    R0000104            -1   my[103]             -1
    y[104]    R0000105            -1   my[104]             -1
    y[105]    R0000106            -1   my[105]             -1
    y[106]    R0000107            -1   my[106]             -1
    y[107]    R0000108            -1   my[107]             -1
    y[108]    R0000109            -1   my[108]             -1
    y[109]    R0000110            -1   my[109]             -1
    y[110]    R0000111            -1   my[110]             -1
    y[111]    R0000112            -1   my[111]             -1
    y[112]    R0000113            -1   my[112]             -1
    y[113]    R0000114            -1   my[113]             -1
    y[114]    R0000115            -1   my[114]             -1
    y[115]    R0000116            -1   my[115]             -1
    y[116]    R0000117            -1   my[116]             -1
    y[117]    R0000118            -1   my[117]             -1
    y[118]    R0000119            -1   my[118]             -1
    y[119]    R0000120            -1   my[119]             -1
    y[120]    R0000121            -1   my[120]             -1
    y[121]    R0000122            -1   my[121]             -1
    y[122]    R0000123            -1   my[122]             -1
    y[123]    R0000124            -1   my[123]             -1
    y[124]    R0000125            -1   my[124]             -1
    y[125]    R0000126            -1   my[125]             -1
    y[126]    R0000127            -1   my[126]             -1
    y[127]    R0000128            -1   my[127]             -1
    y[128]    R0000129            -1   my[128]             -1
    y[129]    R0000130            -1   my[129]             -1
    y[130]    R0000131            -1   my[130]             -1
    y[131]    R0000132            -1   my[131]             -1
    y[132]    R0000133            -1   my[132]             -1
    y[133]    R0000134            -1   my[133]             -1
    y[134]    R0000135            -1   my[134]             -1
    y[135]    R0000136            -1   my[135]             -1
    y[136]    R0000137            -1   my[136]             -1
    y[137]    R0000138            -1   my[137]             -1
    y[138]    R0000139            -1   my[138]             -1
    y[139]    R0000140            -1   my[139]             -1
    y[140]    R0000141            -1   my[140]             -1
    y[141]    R0000142            -1   my[141]             -1
    y[142]    R0000143            -1   my[142]             -1
    y[143]    R0000144            -1   my[143]             -1
    y[144]    R0000145            -1   my[144]             -1
    z         obj               0.01   my[1]                1
    z         my[2]                1   my[3]                1
    z         my[4]                1   my[5]                1
    z         my[6]                1   my[7]                1
    z         my[8]                1   my[9]                1
    z         my[10]               1   my[11]               1
    z         my[12]               1   my[13]               1
    z         my[14]               1   my[15]               1
    z         my[16]               1   my[17]               1
    z         my[18]               1   my[19]               1
    z         my[20]               1   my[21]               1
    z         my[22]               1   my[23]               1
    z         my[24]               1   my[25]               1
    z         my[26]               1   my[27]               1
    z         my[28]               1   my[29]               1
    z         my[30]               1   my[31]               1
    z         my[32]               1   my[33]               1
    z         my[34]               1   my[35]               1
    z         my[36]               1   my[37]               1
    z         my[38]               1   my[39]               1
    z         my[40]               1   my[41]               1
    z         my[42]               1   my[43]               1
    z         my[44]               1   my[45]               1
    z         my[46]               1   my[47]               1
    z         my[48]               1   my[49]               1
    z         my[50]               1   my[51]               1
    z         my[52]               1   my[53]               1
    z         my[54]               1   my[55]               1
    z         my[56]               1   my[57]               1
    z         my[58]               1   my[59]               1
    z         my[60]               1   my[61]               1
    z         my[62]               1   my[63]               1
    z         my[64]               1   my[65]               1
    z         my[66]               1   my[67]               1
    z         my[68]               1   my[69]               1
    z         my[70]               1   my[71]               1
    z         my[72]               1   my[73]               1
    z         my[74]               1   my[75]               1
    z         my[76]               1   my[77]               1
    z         my[78]               1   my[79]               1
    z         my[80]               1   my[81]               1
    z         my[82]               1   my[83]               1
    z         my[84]               1   my[85]               1
    z         my[86]               1   my[87]               1
    z         my[88]               1   my[89]               1
    z         my[90]               1   my[91]               1
    z         my[92]               1   my[93]               1
    z         my[94]               1   my[95]               1
    z         my[96]               1   my[97]               1
    z         my[98]               1   my[99]               1
    z         my[100]              1   my[101]              1
    z         my[102]              1   my[103]              1
    z         my[104]              1   my[105]              1
    z         my[106]              1   my[107]              1
    z         my[108]              1   my[109]              1
    z         my[110]              1   my[111]              1
    z         my[112]              1   my[113]              1
    z         my[114]              1   my[115]              1
    z         my[116]              1   my[117]              1
    z         my[118]              1   my[119]              1
    z         my[120]              1   my[121]              1
    z         my[122]              1   my[123]              1
    z         my[124]              1   my[125]              1
    z         my[126]              1   my[127]              1
    z         my[128]              1   my[129]              1
    z         my[130]              1   my[131]              1
    z         my[132]              1   my[133]              1
    z         my[134]              1   my[135]              1
    z         my[136]              1   my[137]              1
    z         my[138]              1   my[139]              1
    z         my[140]              1   my[141]              1
    z         my[142]              1   my[143]              1
    z         my[144]              1
RHS
    RHS1      cover[3]             1   cover[4]             1
    RHS1      cover[5]             1   cover[6]             1
    RHS1      cover[7]             1   R0000012             2
    RHS1      R0000013             2   R0000014             2
    RHS1      R0000015             3   R0000016             1
    RHS1      R0000017             1   R0000018             1
    RHS1      R0000019             1   R0000021             1
    RHS1      R0000022             1   R0000023             1
    RHS1      R0000024             1   R0000025             1
    RHS1      R0000057             1   R0000058             1
    RHS1      R0000059             1   R0000060             1
    RHS1      R0000065             1   R0000066             1
    RHS1      R0000067             1   R0000068             1
    RHS1      R0000069             1   R0000072             1
    RHS1      R0000073             1   R0000074             1
    RHS1      R0000075             1   R0000076             1
    RHS1      R0000078             1   R0000079             2
    RHS1      R0000080             2   R0000081             2
    RHS1      R0000082             2   R0000083             2
    RHS1      R0000084             1   R0000085             1
    RHS1      R0000086             1   R0000087             1
    RHS1      R0000088             1   R0000089             1
    RHS1      R0000090             1   R0000094             1
    RHS1      R0000095             1   R0000096             1
    RHS1      R0000097             1   R0000098             1
    RHS1      R0000099             1   R0000100             2
    RHS1      R0000101             2   R0000102             3
    RHS1      R0000103             2   R0000104             3
    RHS1      R0000105             2   R0000106             2
    RHS1      R0000107             2   R0000108             1
    RHS1      R0000109             1   R0000110             1
    RHS1      R0000111             1   R0000115             1
    RHS1      R0000116             1   R0000117             1
    RHS1      R0000118             1   R0000119             2
    RHS1      R0000120             2   R0000121             4
    RHS1      R0000122             5   R0000123             5
    RHS1      R0000124             4   R0000125             4
    RHS1      R0000126             4   R0000127             4
    RHS1      R0000128             3   R0000129             3
    RHS1      R0000130             3   R0000131             2
    RHS1      R0000132             3   R0000133             5
    RHS1      R0000134             4   R0000135          1000
    RHS1      R0000136             6   R0000137             6
    RHS1      R0000138             5   R0000139             5
    RHS1      R0000140             2   R0000141             2
    RHS1      R0000142             3   R0000143             3
    RHS1      R0000144             3
ENDATA
